
Welcome to IBM(R) ILOG(R) CPLEX(R) Interactive Optimizer 22.1.1.0
  with Simplex, Mixed Integer & Barrier Optimizers
5725-A06 5725-A29 5724-Y48 5724-Y49 5724-Y54 5724-Y55 5655-Y21
Copyright IBM Corp. 1988, 2022.  All Rights Reserved.

Type 'help' for a list of available commands.
Type 'help' followed by a command name for more
information on commands.

CPLEX> Selected objective sense:  MINIMIZE
Selected objective  name:  00000000
Selected RHS        name:  RHS1
Selected bound      name:  BOUND
Problem 'ee.mps' read.
Read time = 0.03 sec. (3.17 ticks)
CPLEX> New value for time limit in seconds: 7200
CPLEX> New value for parallel optimization mode: -1
CPLEX> New value for default parallel thread count: 40
CPLEX> New value for mixed integer optimality gap tolerance: 1e-13
CPLEX> Version identifier: 22.1.1.0 | 2022-11-28 | 9160aff4d
CPXPARAM_Threads                                 40
CPXPARAM_Parallel                                -1
CPXPARAM_TimeLimit                               7200
CPXPARAM_MIP_Tolerances_MIPGap                   1e-13
Found incumbent of value 0.000000 after 0.00 sec. (0.31 ticks)
Tried aggregator 2 times.
MIP Presolve eliminated 182 rows and 2745 columns.
MIP Presolve modified 6090 coefficients.
Aggregator did 713 substitutions.
Reduced MIP has 3636 rows, 7840 columns, and 28953 nonzeros.
Reduced MIP has 7840 binaries, 0 generals, 0 SOSs, and 0 indicators.
Presolve time = 0.08 sec. (69.15 ticks)
Probing time = 0.03 sec. (5.33 ticks)
Tried aggregator 1 time.
Detecting symmetries...
Reduced MIP has 3636 rows, 7840 columns, and 28953 nonzeros.
Reduced MIP has 7840 binaries, 0 generals, 0 SOSs, and 0 indicators.
Presolve time = 0.03 sec. (22.10 ticks)
Probing time = 0.02 sec. (5.12 ticks)
Clique table members: 18788.
MIP emphasis: balance optimality and feasibility.
MIP search method: dynamic search.
Parallel mode: opportunistic, using up to 40 threads.
Root relaxation solution time = 0.19 sec. (167.04 ticks)

        Nodes                                         Cuts/
   Node  Left     Objective  IInf  Best Integer    Best Bound    ItCnt     Gap

*     0+    0                            0.0000  -1.54000e+13              --- 
*     0+    0                      -8.19000e+12  -1.54000e+13            88.03%
      0     0  -1.53900e+13   133  -8.19000e+12  -1.53900e+13     3205   87.91%
*     0+    0                      -1.17900e+13  -1.53900e+13            30.53%
*     0+    0                      -1.53900e+13  -1.53900e+13             0.00%
      0     0  -1.53900e+13   168  -1.53900e+13     Cuts: 123     3777    0.00%
*     0+    0                      -1.53900e+13  -1.53900e+13             0.00%
      0     0  -1.53900e+13   268  -1.53900e+13      Cuts: 89     4444    0.00%
*     0+    0                      -1.53900e+13  -1.53900e+13             0.00%
*     0+    0                      -1.53900e+13  -1.53900e+13             0.00%
*     0+    0                      -1.53900e+13  -1.53900e+13             0.00%
      0     2  -1.53900e+13   228  -1.53900e+13  -1.53900e+13     4505    0.00%
Elapsed time = 3.02 sec. (1220.95 ticks, tree = 0.02 MB, solutions = 8)
     45    43  -1.53900e+13   207  -1.53900e+13  -1.53900e+13    35290    0.00%
    194    55        cutoff        -1.53900e+13  -1.53900e+13    48459    0.00%
    479    80  -1.53900e+13   345  -1.53900e+13  -1.53900e+13    67135    0.00%
    810    88  -1.53900e+13   208  -1.53900e+13  -1.53900e+13    72430    0.00%
   1289   270  -1.53900e+13   240  -1.53900e+13  -1.53900e+13   166964    0.00%
   1599   172  -1.53900e+13   164  -1.53900e+13  -1.53900e+13   129379    0.00%
   2045   202  -1.53900e+13   119  -1.53900e+13  -1.53900e+13   134842    0.00%
   2546   205  -1.53900e+13   283  -1.53900e+13  -1.53900e+13   139499    0.00%
   2968   606        cutoff        -1.53900e+13  -1.53900e+13   364257    0.00%
   4416   830        cutoff        -1.53900e+13  -1.53900e+13   556564    0.00%
Elapsed time = 9.23 sec. (4331.22 ticks, tree = 3.48 MB, solutions = 8)
   7365   836  -1.53900e+13    93  -1.53900e+13  -1.53900e+13   571293    0.00%
  11723   824  -1.53900e+13   123  -1.53900e+13  -1.53900e+13   695320    0.00%
  15823  1143  -1.53900e+13   126  -1.53900e+13  -1.53900e+13   815257    0.00%
  18720  1538  -1.53900e+13   120  -1.53900e+13  -1.53900e+13   909427    0.00%

Performing restart 1

Repeating presolve.
Tried aggregator 3 times.
MIP Presolve eliminated 373 rows and 1411 columns.
MIP Presolve added 20 rows and 0 columns.
MIP Presolve modified 2093 coefficients.
Aggregator did 168 substitutions.
Reduced MIP has 3030 rows, 6243 columns, and 22438 nonzeros.
Reduced MIP has 6243 binaries, 0 generals, 0 SOSs, and 0 indicators.
Presolve time = 0.09 sec. (95.05 ticks)
Tried aggregator 2 times.
MIP Presolve eliminated 34 rows and 87 columns.
MIP Presolve added 2 rows and 0 columns.
Aggregator did 10 substitutions.
Reduced MIP has 2988 rows, 6133 columns, and 22042 nonzeros.
Reduced MIP has 6133 binaries, 0 generals, 0 SOSs, and 0 indicators.
Presolve time = 0.04 sec. (37.32 ticks)
Tried aggregator 1 time.
Reduced MIP has 2988 rows, 6133 columns, and 22042 nonzeros.
Reduced MIP has 6133 binaries, 0 generals, 0 SOSs, and 0 indicators.
Presolve time = 0.03 sec. (16.07 ticks)
Represolve time = 0.35 sec. (245.20 ticks)
  19368     0  -1.53900e+13   310  -1.53900e+13      Cuts: 23  1231537    0.00%
  19368     0  -1.53900e+13   294  -1.53900e+13      Cuts: 36  1231694    0.00%
  19368     0  -1.53900e+13   280  -1.53900e+13      Cuts: 26  1231790    0.00%
  19368     0  -1.53900e+13   268  -1.53900e+13      Cuts: 49  1232445    0.00%
  19368     0  -1.53900e+13   300  -1.53900e+13      Cuts: 41  1232602    0.00%
  19368     0  -1.53900e+13   299  -1.53900e+13      Cuts: 24  1232736    0.00%
  19368     0  -1.53900e+13   313  -1.53900e+13      Cuts: 10  1232860    0.00%
  19368     3        cutoff        -1.53900e+13  -1.53900e+13  1256949    0.00%
  19432     4        cutoff        -1.53900e+13  -1.53900e+13  1243853    0.00%

GUB cover cuts applied:  6
Clique cuts applied:  12
Cover cuts applied:  193
Mixed integer rounding cuts applied:  6
Zero-half cuts applied:  28
Lift and project cuts applied:  9
Gomory fractional cuts applied:  26

Root node processing (before b&c):
  Real time             =    1.32 sec. (1192.41 ticks)
Parallel b&c, 40 threads:
  Real time             =   18.50 sec. (12034.89 ticks)
  Sync time (average)   =    3.90 sec.
  Wait time (average)   =    0.09 sec.
                          ------------
Total (root+branch&cut) =   19.82 sec. (13227.30 ticks)

Solution pool: 8 solutions saved.

MIP - Integer optimal solution:  Objective = -1.5389999189e+13
Solution time =   19.94 sec.  Iterations = 1257976  Nodes = 19446
Deterministic time = 13227.33 ticks  (663.21 ticks/sec)

CPLEX> Solution 'p9' written to file 'ee.sol'.
CPLEX> 